(set-info :smt-lib-version 2.6)
(set-logic QF_S)
(set-info :source |
Generated by: Joel Day, Thorsten Ehlers, Mitja Kulczynski, Federico Mora, Florin Manea, Dirk Nowotka, Danny Poulsen, Zhengyang Lu
Application: Test WOORPJE
Target solver: WOORPJE
Publications: Day, J. D., Ehlers, T., Kulczynski, M., Manea, F., Nowotka, D., & Poulsen, D. B. (2019). On solving word equations using SAT. In RP 2019
Description: Consisting of a system of 100 small random word equations with at most 6 letters, 10 variables and length 60.
|)
(set-info :license "https://creativecommons.org/licenses/by/4.0/")
(set-info :category "random")
(set-info :status unknown)

(declare-fun E () String)
(declare-fun A () String)
(declare-fun C () String)
(declare-fun D () String)
(assert (= (str.++  "dabedccdaabbcbdbdacbbaebcbabbedcbbccacdecaacceccdadaccccbcbdceccc" "")  (str.++  "dabe" E "bcbdceccc") ))
(assert (= (str.++  "eedbaeaba" D "beabdaecaaacbbecceceed")  (str.++  "eed" C "bcbabecbcabeabdaecaaacbbecceceed") ))
(assert (= (str.++  "ebb" C "ccbdeecddcaaeebd" D "accddaecaebbaddbebddceebcbe")  (str.++  "ebb" C "ccbdeecdd" A "bacabaccddaecaebbaddbebddceebcbe") ))
(assert (= (str.++  "adcbcbbaeacadaaeaeabdecebbdebeaededbeaaeebeaabdedaddbde" C "beabba")  (str.++  "adcbcbbaeacadaaeaeabdecebbdebeaededbeaaeebeaabdedaddbde" C "beabba") ))
(assert (= (str.++  "debceaaddbddbaaedccddccaeadecdeaacbbcabcebddcecbcddabadbdcededdad" "")  (str.++  "debceaaddbddbaaedccddccaeadecdeaacbbc" C "bddcecbcddabadbdcededdad") ))
(assert (= (str.++  "edcaceaabbcbabedacdbabceaaaeadcbeeeadacbaecbbacaecbaeddbbccdabbcd" "")  (str.++  "edcaceaabbcbabedacdb" C "aaaeadcbeeeadacbaecbbacaecbaeddbbccdabbcd") ))
(assert (= (str.++  "bcedaccddebbaaebedecaaebeadcbaecddabaaacdaaabbaaadbcb" C "ddaadcdc")  (str.++  "bcedaccddebbaaebedecaaebeadcbaecddabaaacdaaabbaaadbcbabceddaadcdc" "") ))
(assert (= (str.++  "ceabceabababdaddbcbebeebebcececdeeeeeeaedcdbeddeaddadebbdaccdacec" "")  (str.++  "ce" C "abababdaddbcbebeebebcececdeeeeeeaedcdbeddeaddadebbdaccdacec") ))
(assert (= (str.++  "aabbcbebbaeaaeddebbdcceadaccdadeebaeedddcbebbdeabcbbeceddacbdabce" "")  (str.++  "aabbcbebbaeaaeddebbdcceadaccdadeebaeedddcbebbdeabcbbeceddacbd" C) ))
(assert (= (str.++  "cebdbbbbdcacddeecccbbd" C "cacbccdbaebccaebaccebaebacbaeecccbacaee")  (str.++  "cebdbbbbdcacddeecccbbdabcecacbccdbaebccaebaccebaebacbaeecccbacaee" "") ))
(assert (= (str.++  "dddedbcaaddadcdeeeeabeabaebbccadc" C "badaccbaaecccdccccbeadbeebec")  (str.++  "dddedbcaaddadcdeeeeabeabaebbccadc" C "badaccbaaecccdccccbeadbeebec") ))
(assert (= (str.++  "abcccbbbadbbbeedabba" C "edecbceaedaecbaedecececcdeabebccccbacdcbb")  (str.++  "abcccbbbadbbbeedabbaabceedecbceaedaecbaedecececcdeabebccccbacdcbb" "") ))
(assert (= (str.++  "ccabcbcdeaeccbccaadedbcccecee" C "cbeebbaabdeadaedeaedaabacdcadbdc")  (str.++  "ccabcbcdeaeccbccaadedbccceceeabcecbeebbaabdeadaedeaedaabacdcadbdc" "") ))
(check-sat)

(exit)
